5 6 119
4 5 1 2 1 3 2 4 3 2 34 34 62 62 94 94 114 
4 4 1 4 2 1 3 1 4 4 44 44 86 86 104 104 118 
4 3 1 1 2 2 2 2 3 19 57 57 75 75 99 99 115 
5 1 1 5 2 5 3 5 4 3 3 18 38 39 65 65 87 87 105 105 119 
9 4 1 3 1 3 1 2 1 2 1 2 2 4 3 4 3 3 3 0 4 4 14 14 19 19 25 25 27 62 65 83 86 86 93 94 99 
9 5 1 1 1 1 1 5 2 5 2 1 2 3 2 1 3 1 3 0 2 2 11 11 18 27 34 34 39 39 42 57 61 72 75 75 78 
